NAME : eil101.tsp
TYPE : TOUR
DIMENSION : 101
TOUR_LENGTH : 709.3326099428513
TOUR_SECTION
1
69
70
10
32
90
63
11
64
49
36
47
46
8
82
7
48
19
62
88
31
52
89
18
60
83
45
17
86
38
43
15
57
2
73
74
22
41
75
56
23
67
39
25
55
4
72
21
40
87
42
14
44
91
100
37
98
93
85
16
61
84
5
99
96
6
94
95
59
92
97
13
58
53
101
27
28
26
12
54
24
29
80
68
76
50
77
3
79
78
34
35
71
65
66
20
30
51
33
81
9
-1
